p cnf 200 1110
-101 50 0
-101 -20 0
-101 -7 0
-101 -13 0
-101 63 0
-101 -88 0
-101 83 0
-101 -29 0
-101 -45 0
-101 9 0
101 -50 20 7 13 -63 88 -83 29 45 -9 0
-102 -67 0
-102 28 0
-102 44 0
-102 -51 0
-102 -19 0
-102 20 0
-102 -38 0
-102 -100 0
-102 -14 0
-102 -90 0
102 67 -28 -44 51 19 -20 38 100 14 90 0
-103 -68 0
-103 -78 0
-103 -6 0
-103 47 0
-103 84 0
-103 22 0
-103 -26 0
-103 21 0
-103 -64 0
-103 73 0
103 68 78 6 -47 -84 -22 26 -21 64 -73 0
-104 53 0
-104 -1 0
-104 49 0
-104 -59 0
-104 30 0
-104 48 0
-104 -18 0
-104 -32 0
-104 -64 0
-104 92 0
104 -53 1 -49 59 -30 -48 18 32 64 -92 0
-105 44 0
-105 -46 0
-105 92 0
-105 6 0
-105 -70 0
-105 42 0
-105 -48 0
-105 -71 0
-105 -24 0
-105 39 0
105 -44 46 -92 -6 70 -42 48 71 24 -39 0
-106 -72 0
-106 77 0
-106 25 0
-106 40 0
-106 -1 0
-106 89 0
-106 -62 0
-106 -15 0
-106 43 0
-106 88 0
106 72 -77 -25 -40 1 -89 62 15 -43 -88 0
-107 -14 0
-107 -90 0
-107 40 0
-107 39 0
-107 -6 0
-107 91 0
-107 -97 0
-107 -21 0
-107 -68 0
-107 -69 0
107 14 90 -40 -39 6 -91 97 21 68 69 0
-108 17 0
-108 93 0
-108 -98 0
-108 14 0
-108 -39 0
-108 18 0
-108 46 0
-108 8 0
-108 33 0
-108 -1 0
108 -17 -93 98 -14 39 -18 -46 -8 -33 1 0
-109 -8 0
-109 -78 0
-109 -35 0
-109 -99 0
-109 25 0
-109 74 0
-109 84 0
-109 -17 0
-109 -43 0
-109 47 0
109 8 78 35 99 -25 -74 -84 17 43 -47 0
-110 50 0
-110 -89 0
-110 16 0
-110 18 0
-110 -76 0
-110 56 0
-110 90 0
-110 6 0
-110 8 0
-110 75 0
110 -50 89 -16 -18 76 -56 -90 -6 -8 -75 0
101 102 103 104 105 106 107 108 109 110 0
-111 -34 0
-111 -45 0
-111 -73 0
-111 -27 0
-111 47 0
-111 22 0
-111 -84 0
-111 37 0
-111 52 0
-111 -54 0
111 34 45 73 27 -47 -22 84 -37 -52 54 0
-112 -31 0
-112 92 0
-112 85 0
-112 -18 0
-112 25 0
-112 -60 0
-112 73 0
-112 96 0
-112 -84 0
-112 -23 0
112 31 -92 -85 18 -25 60 -73 -96 84 23 0
-113 93 0
-113 -39 0
-113 16 0
-113 42 0
-113 -4 0
-113 -29 0
-113 52 0
-113 -19 0
-113 22 0
-113 64 0
113 -93 39 -16 -42 4 29 -52 19 -22 -64 0
-114 26 0
-114 -34 0
-114 -39 0
-114 91 0
-114 41 0
-114 -97 0
-114 -79 0
-114 -88 0
-114 35 0
-114 18 0
114 -26 34 39 -91 -41 97 79 88 -35 -18 0
-115 -61 0
-115 41 0
-115 65 0
-115 13 0
-115 -6 0
-115 40 0
-115 -24 0
-115 -88 0
-115 -16 0
-115 1 0
115 61 -41 -65 -13 6 -40 24 88 16 -1 0
-116 -75 0
-116 -80 0
-116 61 0
-116 -8 0
-116 -57 0
-116 24 0
-116 83 0
-116 37 0
-116 97 0
-116 2 0
116 75 80 -61 8 57 -24 -83 -37 -97 -2 0
-117 50 0
-117 -94 0
-117 -53 0
-117 -7 0
-117 -19 0
-117 -65 0
-117 -66 0
-117 -17 0
-117 42 0
-117 32 0
117 -50 94 53 7 19 65 66 17 -42 -32 0
-118 -36 0
-118 -8 0
-118 13 0
-118 -63 0
-118 16 0
-118 -75 0
-118 -25 0
-118 62 0
-118 19 0
-118 78 0
118 36 8 -13 63 -16 75 25 -62 -19 -78 0
-119 -17 0
-119 53 0
-119 98 0
-119 83 0
-119 79 0
-119 -21 0
-119 37 0
-119 -55 0
-119 84 0
-119 41 0
119 17 -53 -98 -83 -79 21 -37 55 -84 -41 0
-120 74 0
-120 56 0
-120 21 0
-120 -11 0
-120 -93 0
-120 -53 0
-120 10 0
-120 27 0
-120 -67 0
-120 7 0
120 -74 -56 -21 11 93 53 -10 -27 67 -7 0
111 112 113 114 115 116 117 118 119 120 0
-121 -25 0
-121 18 0
-121 -42 0
-121 88 0
-121 -87 0
-121 59 0
-121 -4 0
-121 85 0
-121 -74 0
-121 -71 0
121 25 -18 42 -88 87 -59 4 -85 74 71 0
-122 31 0
-122 -86 0
-122 42 0
-122 -48 0
-122 -35 0
-122 34 0
-122 2 0
-122 81 0
-122 69 0
-122 29 0
122 -31 86 -42 48 35 -34 -2 -81 -69 -29 0
-123 71 0
-123 -46 0
-123 -8 0
-123 -6 0
-123 51 0
-123 -13 0
-123 85 0
-123 9 0
-123 73 0
-123 89 0
123 -71 46 8 6 -51 13 -85 -9 -73 -89 0
-124 56 0
-124 -100 0
-124 53 0
-124 -86 0
-124 61 0
-124 28 0
-124 -22 0
-124 -93 0
-124 -95 0
-124 -6 0
124 -56 100 -53 86 -61 -28 22 93 95 6 0
-125 -2 0
-125 -31 0
-125 25 0
-125 -8 0
-125 -62 0
-125 95 0
-125 53 0
-125 35 0
-125 -76 0
-125 -78 0
125 2 31 -25 8 62 -95 -53 -35 76 78 0
-126 -90 0
-126 20 0
-126 13 0
-126 -80 0
-126 8 0
-126 -33 0
-126 -89 0
-126 -54 0
-126 68 0
-126 10 0
126 90 -20 -13 80 -8 33 89 54 -68 -10 0
-127 40 0
-127 -88 0
-127 26 0
-127 74 0
-127 -65 0
-127 5 0
-127 -41 0
-127 13 0
-127 36 0
-127 -51 0
127 -40 88 -26 -74 65 -5 41 -13 -36 51 0
-128 -99 0
-128 53 0
-128 37 0
-128 -46 0
-128 -19 0
-128 4 0
-128 -20 0
-128 -74 0
-128 -52 0
-128 10 0
128 99 -53 -37 46 19 -4 20 74 52 -10 0
-129 92 0
-129 19 0
-129 53 0
-129 64 0
-129 -59 0
-129 -70 0
-129 -8 0
-129 57 0
-129 -78 0
-129 -87 0
129 -92 -19 -53 -64 59 70 8 -57 78 87 0
-130 -13 0
-130 77 0
-130 -38 0
-130 50 0
-130 -73 0
-130 22 0
-130 63 0
-130 88 0
-130 -41 0
-130 8 0
130 13 -77 38 -50 73 -22 -63 -88 41 -8 0
121 122 123 124 125 126 127 128 129 130 0
-131 38 0
-131 60 0
-131 -49 0
-131 -62 0
-131 -17 0
-131 -22 0
-131 -10 0
-131 -18 0
-131 54 0
-131 -20 0
131 -38 -60 49 62 17 22 10 18 -54 20 0
-132 23 0
-132 43 0
-132 -60 0
-132 76 0
-132 25 0
-132 34 0
-132 -27 0
-132 -20 0
-132 88 0
-132 -38 0
132 -23 -43 60 -76 -25 -34 27 20 -88 38 0
-133 51 0
-133 -91 0
-133 57 0
-133 58 0
-133 76 0
-133 -79 0
-133 21 0
-133 70 0
-133 74 0
-133 71 0
133 -51 91 -57 -58 -76 79 -21 -70 -74 -71 0
-134 -1 0
-134 -72 0
-134 64 0
-134 -40 0
-134 57 0
-134 -65 0
-134 -46 0
-134 -26 0
-134 87 0
-134 -19 0
134 1 72 -64 40 -57 65 46 26 -87 19 0
-135 -49 0
-135 57 0
-135 39 0
-135 -1 0
-135 22 0
-135 -21 0
-135 -82 0
-135 -8 0
-135 -5 0
-135 -20 0
135 49 -57 -39 1 -22 21 82 8 5 20 0
-136 5 0
-136 34 0
-136 50 0
-136 37 0
-136 -36 0
-136 -19 0
-136 98 0
-136 -29 0
-136 45 0
-136 21 0
136 -5 -34 -50 -37 36 19 -98 29 -45 -21 0
-137 14 0
-137 67 0
-137 64 0
-137 41 0
-137 -77 0
-137 28 0
-137 -59 0
-137 5 0
-137 34 0
-137 -21 0
137 -14 -67 -64 -41 77 -28 59 -5 -34 21 0
-138 65 0
-138 -66 0
-138 90 0
-138 -78 0
-138 -92 0
-138 93 0
-138 -36 0
-138 -67 0
-138 64 0
-138 -51 0
138 -65 66 -90 78 92 -93 36 67 -64 51 0
-139 76 0
-139 -4 0
-139 -15 0
-139 -27 0
-139 91 0
-139 -6 0
-139 16 0
-139 52 0
-139 -51 0
-139 -86 0
139 -76 4 15 27 -91 6 -16 -52 51 86 0
-140 6 0
-140 -22 0
-140 13 0
-140 38 0
-140 -92 0
-140 -59 0
-140 48 0
-140 -84 0
-140 85 0
-140 7 0
140 -6 22 -13 -38 92 59 -48 84 -85 -7 0
131 132 133 134 135 136 137 138 139 140 0
-141 86 0
-141 -83 0
-141 -80 0
-141 -37 0
-141 -60 0
-141 -90 0
-141 54 0
-141 69 0
-141 -96 0
-141 -75 0
141 -86 83 80 37 60 90 -54 -69 96 75 0
-142 -1 0
-142 -5 0
-142 3 0
-142 -35 0
-142 -51 0
-142 14 0
-142 23 0
-142 69 0
-142 -88 0
-142 -10 0
142 1 5 -3 35 51 -14 -23 -69 88 10 0
-143 90 0
-143 84 0
-143 -74 0
-143 68 0
-143 47 0
-143 17 0
-143 -52 0
-143 97 0
-143 -82 0
-143 -83 0
143 -90 -84 74 -68 -47 -17 52 -97 82 83 0
-144 -65 0
-144 -19 0
-144 -33 0
-144 -69 0
-144 -72 0
-144 14 0
-144 10 0
-144 -76 0
-144 26 0
-144 84 0
144 65 19 33 69 72 -14 -10 76 -26 -84 0
-145 84 0
-145 23 0
-145 -81 0
-145 38 0
-145 92 0
-145 44 0
-145 -97 0
-145 3 0
-145 -76 0
-145 -69 0
145 -84 -23 81 -38 -92 -44 97 -3 76 69 0
-146 -86 0
-146 53 0
-146 -28 0
-146 -5 0
-146 -99 0
-146 85 0
-146 -21 0
-146 -87 0
-146 -83 0
-146 -73 0
146 86 -53 28 5 99 -85 21 87 83 73 0
-147 90 0
-147 96 0
-147 -3 0
-147 53 0
-147 99 0
-147 23 0
-147 -44 0
-147 52 0
-147 -76 0
-147 89 0
147 -90 -96 3 -53 -99 -23 44 -52 76 -89 0
-148 -28 0
-148 -9 0
-148 -80 0
-148 -58 0
-148 2 0
-148 -93 0
-148 4 0
-148 -92 0
-148 7 0
-148 -49 0
148 28 9 80 58 -2 93 -4 92 -7 49 0
-149 -14 0
-149 -17 0
-149 -9 0
-149 -2 0
-149 -45 0
-149 -51 0
-149 53 0
-149 23 0
-149 41 0
-149 49 0
149 14 17 9 2 45 51 -53 -23 -41 -49 0
-150 70 0
-150 -22 0
-150 -29 0
-150 96 0
-150 46 0
-150 -40 0
-150 31 0
-150 28 0
-150 5 0
-150 -80 0
150 -70 22 29 -96 -46 40 -31 -28 -5 80 0
141 142 143 144 145 146 147 148 149 150 0
-151 14 0
-151 -92 0
-151 94 0
-151 -77 0
-151 36 0
-151 -74 0
-151 -91 0
-151 79 0
-151 -62 0
-151 99 0
151 -14 92 -94 77 -36 74 91 -79 62 -99 0
-152 74 0
-152 -21 0
-152 -25 0
-152 -69 0
-152 -48 0
-152 -51 0
-152 -92 0
-152 19 0
-152 -58 0
-152 47 0
152 -74 21 25 69 48 51 92 -19 58 -47 0
-153 28 0
-153 10 0
-153 25 0
-153 50 0
-153 8 0
-153 54 0
-153 -84 0
-153 78 0
-153 33 0
-153 -95 0
153 -28 -10 -25 -50 -8 -54 84 -78 -33 95 0
-154 38 0
-154 -58 0
-154 -53 0
-154 -17 0
-154 -43 0
-154 91 0
-154 -61 0
-154 18 0
-154 -96 0
-154 3 0
154 -38 58 53 17 43 -91 61 -18 96 -3 0
-155 -40 0
-155 -77 0
-155 30 0
-155 74 0
-155 -99 0
-155 11 0
-155 41 0
-155 -90 0
-155 32 0
-155 -71 0
155 40 77 -30 -74 99 -11 -41 90 -32 71 0
-156 -38 0
-156 -8 0
-156 45 0
-156 14 0
-156 30 0
-156 86 0
-156 88 0
-156 -77 0
-156 -42 0
-156 9 0
156 38 8 -45 -14 -30 -86 -88 77 42 -9 0
-157 -98 0
-157 -60 0
-157 -83 0
-157 -38 0
-157 -6 0
-157 99 0
-157 1 0
-157 -90 0
-157 -57 0
-157 -50 0
157 98 60 83 38 6 -99 -1 90 57 50 0
-158 -10 0
-158 -96 0
-158 -1 0
-158 86 0
-158 -70 0
-158 -43 0
-158 51 0
-158 19 0
-158 78 0
-158 55 0
158 10 96 1 -86 70 43 -51 -19 -78 -55 0
-159 -47 0
-159 2 0
-159 -94 0
-159 82 0
-159 20 0
-159 30 0
-159 -80 0
-159 36 0
-159 67 0
-159 12 0
159 47 -2 94 -82 -20 -30 80 -36 -67 -12 0
-160 100 0
-160 37 0
-160 42 0
-160 5 0
-160 52 0
-160 19 0
-160 -2 0
-160 -8 0
-160 -32 0
-160 -43 0
160 -100 -37 -42 -5 -52 -19 2 8 32 43 0
151 152 153 154 155 156 157 158 159 160 0
-161 46 0
-161 -62 0
-161 69 0
-161 41 0
-161 -43 0
-161 -84 0
-161 9 0
-161 -92 0
-161 88 0
-161 75 0
161 -46 62 -69 -41 43 84 -9 92 -88 -75 0
-162 -61 0
-162 -54 0
-162 -56 0
-162 -99 0
-162 8 0
-162 -58 0
-162 59 0
-162 -42 0
-162 69 0
-162 -63 0
162 61 54 56 99 -8 58 -59 42 -69 63 0
-163 -91 0
-163 15 0
-163 99 0
-163 74 0
-163 -51 0
-163 27 0
-163 36 0
-163 28 0
-163 88 0
-163 5 0
163 91 -15 -99 -74 51 -27 -36 -28 -88 -5 0
-164 36 0
-164 -86 0
-164 -92 0
-164 51 0
-164 33 0
-164 -10 0
-164 -30 0
-164 -97 0
-164 34 0
-164 -17 0
164 -36 86 92 -51 -33 10 30 97 -34 17 0
-165 29 0
-165 -71 0
-165 30 0
-165 61 0
-165 90 0
-165 80 0
-165 -27 0
-165 -14 0
-165 -84 0
-165 83 0
165 -29 71 -30 -61 -90 -80 27 14 84 -83 0
-166 -41 0
-166 -18 0
-166 -87 0
-166 34 0
-166 -6 0
-166 -66 0
-166 99 0
-166 38 0
-166 45 0
-166 52 0
166 41 18 87 -34 6 66 -99 -38 -45 -52 0
-167 80 0
-167 -72 0
-167 21 0
-167 -100 0
-167 -69 0
-167 -56 0
-167 -49 0
-167 10 0
-167 -43 0
-167 98 0
167 -80 72 -21 100 69 56 49 -10 43 -98 0
-168 -63 0
-168 -20 0
-168 97 0
-168 -90 0
-168 39 0
-168 -85 0
-168 30 0
-168 -77 0
-168 79 0
-168 -75 0
168 63 20 -97 90 -39 85 -30 77 -79 75 0
-169 8 0
-169 -99 0
-169 -81 0
-169 74 0
-169 89 0
-169 -52 0
-169 66 0
-169 -71 0
-169 82 0
-169 86 0
169 -8 99 81 -74 -89 52 -66 71 -82 -86 0
-170 59 0
-170 53 0
-170 94 0
-170 -27 0
-170 -75 0
-170 -16 0
-170 5 0
-170 -32 0
-170 -34 0
-170 -23 0
170 -59 -53 -94 27 75 16 -5 32 34 23 0
161 162 163 164 165 166 167 168 169 170 0
-171 -1 0
-171 -15 0
-171 -2 0
-171 32 0
-171 67 0
-171 -80 0
-171 -22 0
-171 68 0
-171 -86 0
-171 -43 0
171 1 15 2 -32 -67 80 22 -68 86 43 0
-172 -67 0
-172 -53 0
-172 -4 0
-172 -49 0
-172 -13 0
-172 -43 0
-172 -86 0
-172 -10 0
-172 -15 0
-172 -30 0
172 67 53 4 49 13 43 86 10 15 30 0
-173 -10 0
-173 18 0
-173 -3 0
-173 -63 0
-173 70 0
-173 -46 0
-173 40 0
-173 -84 0
-173 24 0
-173 -31 0
173 10 -18 3 63 -70 46 -40 84 -24 31 0
-174 93 0
-174 31 0
-174 -70 0
-174 87 0
-174 89 0
-174 -63 0
-174 53 0
-174 -85 0
-174 58 0
-174 83 0
174 -93 -31 70 -87 -89 63 -53 85 -58 -83 0
-175 -95 0
-175 79 0
-175 -52 0
-175 -22 0
-175 -90 0
-175 70 0
-175 29 0
-175 -73 0
-175 41 0
-175 -55 0
175 95 -79 52 22 90 -70 -29 73 -41 55 0
-176 52 0
-176 68 0
-176 87 0
-176 -55 0
-176 36 0
-176 82 0
-176 -41 0
-176 -48 0
-176 16 0
-176 8 0
176 -52 -68 -87 55 -36 -82 41 48 -16 -8 0
-177 14 0
-177 -48 0
-177 -1 0
-177 -75 0
-177 -62 0
-177 -19 0
-177 37 0
-177 -43 0
-177 29 0
-177 53 0
177 -14 48 1 75 62 19 -37 43 -29 -53 0
-178 92 0
-178 -84 0
-178 -63 0
-178 -6 0
-178 -82 0
-178 53 0
-178 -48 0
-178 32 0
-178 46 0
-178 -41 0
178 -92 84 63 6 82 -53 48 -32 -46 41 0
-179 -94 0
-179 -61 0
-179 62 0
-179 55 0
-179 67 0
-179 15 0
-179 -58 0
-179 20 0
-179 10 0
-179 -57 0
179 94 61 -62 -55 -67 -15 58 -20 -10 57 0
-180 16 0
-180 41 0
-180 -79 0
-180 -37 0
-180 46 0
-180 -27 0
-180 97 0
-180 50 0
-180 81 0
-180 9 0
180 -16 -41 79 37 -46 27 -97 -50 -81 -9 0
171 172 173 174 175 176 177 178 179 180 0
-181 -2 0
-181 -80 0
-181 -52 0
-181 86 0
-181 70 0
-181 -81 0
-181 -21 0
-181 -83 0
-181 -44 0
-181 -54 0
181 2 80 52 -86 -70 81 21 83 44 54 0
-182 -46 0
-182 -66 0
-182 92 0
-182 35 0
-182 -32 0
-182 9 0
-182 71 0
-182 21 0
-182 73 0
-182 -5 0
182 46 66 -92 -35 32 -9 -71 -21 -73 5 0
-183 -31 0
-183 95 0
-183 -45 0
-183 -90 0
-183 -70 0
-183 -54 0
-183 57 0
-183 36 0
-183 50 0
-183 -27 0
183 31 -95 45 90 70 54 -57 -36 -50 27 0
-184 94 0
-184 -89 0
-184 -52 0
-184 58 0
-184 56 0
-184 -90 0
-184 -26 0
-184 -14 0
-184 -73 0
-184 41 0
184 -94 89 52 -58 -56 90 26 14 73 -41 0
-185 30 0
-185 41 0
-185 -73 0
-185 58 0
-185 -74 0
-185 -14 0
-185 9 0
-185 -68 0
-185 36 0
-185 -54 0
185 -30 -41 73 -58 74 14 -9 68 -36 54 0
-186 -90 0
-186 77 0
-186 21 0
-186 -66 0
-186 60 0
-186 40 0
-186 91 0
-186 -17 0
-186 25 0
-186 -36 0
186 90 -77 -21 66 -60 -40 -91 17 -25 36 0
-187 97 0
-187 72 0
-187 61 0
-187 -27 0
-187 71 0
-187 91 0
-187 73 0
-187 40 0
-187 13 0
-187 -6 0
187 -97 -72 -61 27 -71 -91 -73 -40 -13 6 0
-188 86 0
-188 21 0
-188 54 0
-188 -51 0
-188 37 0
-188 -15 0
-188 -3 0
-188 -8 0
-188 50 0
-188 28 0
188 -86 -21 -54 51 -37 15 3 8 -50 -28 0
-189 -95 0
-189 -56 0
-189 83 0
-189 48 0
-189 -33 0
-189 -24 0
-189 87 0
-189 -78 0
-189 59 0
-189 -99 0
189 95 56 -83 -48 33 24 -87 78 -59 99 0
-190 -5 0
-190 14 0
-190 -27 0
-190 48 0
-190 36 0
-190 31 0
-190 98 0
-190 60 0
-190 -22 0
-190 -95 0
190 5 -14 27 -48 -36 -31 -98 -60 22 95 0
181 182 183 184 185 186 187 188 189 190 0
-191 15 0
-191 -100 0
-191 -26 0
-191 -90 0
-191 5 0
-191 -38 0
-191 -30 0
-191 56 0
-191 43 0
-191 -40 0
191 -15 100 26 90 -5 38 30 -56 -43 40 0
-192 84 0
-192 27 0
-192 68 0
-192 -25 0
-192 -42 0
-192 15 0
-192 -35 0
-192 -86 0
-192 71 0
-192 -99 0
192 -84 -27 -68 25 42 -15 35 86 -71 99 0
-193 26 0
-193 -82 0
-193 90 0
-193 -23 0
-193 -79 0
-193 -100 0
-193 -30 0
-193 -73 0
-193 11 0
-193 -29 0
193 -26 82 -90 23 79 100 30 73 -11 29 0
-194 -85 0
-194 66 0
-194 -76 0
-194 13 0
-194 -64 0
-194 -71 0
-194 -92 0
-194 -24 0
-194 94 0
-194 -59 0
194 85 -66 76 -13 64 71 92 24 -94 59 0
-195 2 0
-195 39 0
-195 -82 0
-195 33 0
-195 41 0
-195 -65 0
-195 -35 0
-195 -92 0
-195 42 0
-195 -20 0
195 -2 -39 82 -33 -41 65 35 92 -42 20 0
-196 39 0
-196 36 0
-196 44 0
-196 -64 0
-196 -55 0
-196 51 0
-196 91 0
-196 12 0
-196 -22 0
-196 50 0
196 -39 -36 -44 64 55 -51 -91 -12 22 -50 0
-197 -80 0
-197 -46 0
-197 31 0
-197 -51 0
-197 68 0
-197 21 0
-197 74 0
-197 7 0
-197 22 0
-197 30 0
197 80 46 -31 51 -68 -21 -74 -7 -22 -30 0
-198 -43 0
-198 99 0
-198 68 0
-198 96 0
-198 -84 0
-198 33 0
-198 90 0
-198 -58 0
-198 -9 0
-198 -29 0
198 43 -99 -68 -96 84 -33 -90 58 9 29 0
-199 72 0
-199 -38 0
-199 -8 0
-199 -6 0
-199 10 0
-199 97 0
-199 -60 0
-199 -88 0
-199 59 0
-199 -24 0
199 -72 38 8 6 -10 -97 60 88 -59 24 0
-200 63 0
-200 -25 0
-200 -28 0
-200 -94 0
-200 -74 0
-200 34 0
-200 -39 0
-200 -40 0
-200 -65 0
-200 72 0
200 -63 25 28 94 74 -34 39 40 65 -72 0
191 192 193 194 195 196 197 198 199 200 0
